# Objective value = 2.9243348020200597e+02
x[0] 0
x[1] 1
x[2] 1
x[3] 1
x[4] 0
x[5] 0
x[6] 1
x[7] 1
x[8] 0
x[9] 0
x[10] 1
x[11] 1
x[12] 1
x[13] 1
x[14] 0
x[15] 1
x[16] 0
x[17] 1
x[18] 0
x[19] 0
x[20] 0
x[21] 1
x[22] 0
x[23] 0
x[24] 1
x[25] 0
x[26] 0
x[27] 0
x[28] 0
x[29] 0
x[30] 1
x[31] 1
x[32] 1
x[33] 1
x[34] 0
x[35] 0
x[36] 1
x[37] 1
x[38] 1
x[39] 0
x[40] 1
x[41] 1
x[42] 1
x[43] 0
x[44] 1
x[45] 0
x[46] 1
x[47] 1
x[48] 0
x[49] 0
x[50] 0
x[51] 1
x[52] 0
x[53] 0
x[54] 0
x[55] 0
x[56] 1
x[57] 0
x[58] 1
x[59] 0
x[60] 0
x[61] 0
x[62] 0
x[63] 0
x[64] 0
x[65] 1
x[66] 0
x[67] 1
x[68] 1
x[69] 1
x[70] 0
x[71] 0
x[72] 0
x[73] 0
x[74] 1
x[75] 0
x[76] 0
x[77] 0
x[78] 0
x[79] 0
x[80] 1
x[81] 1
x[82] 1
x[83] 0
x[84] 0
x[85] 0
x[86] 1
x[87] 1
x[88] 0
x[89] 1
x[90] 1
x[91] 1
x[92] 1
x[93] 0
x[94] 1
x[95] 1
x[96] 1
x[97] 1
x[98] 1
x[99] 0
x[100] 0
x[101] 1
x[102] 1
x[103] 0
x[104] 0
x[105] 0
x[106] 0
x[107] 1
x[108] 0
x[109] 1
x[110] 1
x[111] 0
x[112] 0
x[113] 1
x[114] 0
x[115] 0
x[116] 0
x[117] 0
x[118] 0
x[119] 0
x[120] 1
x[121] 1
x[122] 0
x[123] 0
x[124] 1
x[125] 0
x[126] 1
x[127] 1
x[128] 0
x[129] 1
x[130] 1
x[131] 0
x[132] 0
x[133] 0
x[134] 1
x[135] 1
x[136] 1
x[137] 0
x[138] 0
x[139] 1
x[140] 1
x[141] 0
x[142] 1
x[143] 0
x[144] 0
x[145] 1
x[146] 0
x[147] 0
x[148] 0
x[149] 0
x[150] 0
x[151] 1
x[152] 0
x[153] 1
x[154] 1
x[155] 0
x[156] 1
x[157] 1
x[158] 0
x[159] 1
x[160] 1
x[161] 0
x[162] 0
x[163] 0
x[164] 1
x[165] 0
x[166] 0
x[167] 1
x[168] 1
x[169] 0
x[170] 1
x[171] 0
x[172] 0
x[173] 1
x[174] 0
x[175] 0
x[176] 0
x[177] 0
x[178] 1
x[179] 1
x[180] 0
x[181] 1
x[182] 0
x[183] 0
x[184] 1
x[185] 0
x[186] 1
x[187] 1
x[188] 1
x[189] 0
x[190] 1
x[191] 0
x[192] 1
x[193] 0
x[194] 0
x[195] 1
x[196] 1
x[197] 1
x[198] 1
x[199] 0
x[200] 0
x[201] 0
x[202] 0
x[203] 1
x[204] 0
x[205] 1
x[206] 0
x[207] 0
x[208] 1
x[209] 1
x[210] 1
x[211] 1
x[212] 0
x[213] 0
x[214] 0
x[215] 1
x[216] 0
x[217] 1
x[218] 1
x[219] 0
x[220] 0
x[221] 1
x[222] 0
x[223] 0
x[224] 0
x[225] 0
x[226] 1
x[227] 0
x[228] 0
x[229] 1
x[230] 1
x[231] 1
x[232] 0
x[233] 0
x[234] 0
x[235] 1
x[236] 0
x[237] 1
x[238] 0
x[239] 0
x[240] 1
x[241] 1
x[242] 0
x[243] 1
x[244] 1
x[245] 1
x[246] 1
x[247] 1
x[248] 1
x[249] 1
x[250] 1
x[251] 0
x[252] 1
x[253] 0
x[254] 0
x[255] 0
x[256] 0
x[257] 0
x[258] 0
x[259] 1
x[260] 1
x[261] 0
x[262] 1
x[263] 1
x[264] 1
x[265] 0
x[266] 1
x[267] 0
x[268] 0
x[269] 1
x[270] 1
x[271] 1
x[272] 0
x[273] 0
x[274] 1
x[275] 1
x[276] 0
x[277] 1
x[278] 0
x[279] 1
x[280] 0
x[281] 0
x[282] 1
x[283] 1
x[284] 1
x[285] 1
x[286] 1
x[287] 0
x[288] 1
x[289] 1
x[290] 1
x[291] 0
x[292] 1
x[293] 0
x[294] 1
x[295] 0
x[296] 0
x[297] 1
x[298] 0
x[299] 1
x[300] 1
x[301] 0
x[302] 0
x[303] 0
x[304] 0
x[305] 0
x[306] 0
x[307] 0
x[308] 0
x[309] 1
x[310] 0
x[311] 1
x[312] 1
x[313] 1
x[314] 0
x[315] 0
x[316] 0
x[317] 0
x[318] 1
x[319] 1
x[320] 1
x[321] 1
x[322] 0
x[323] 0
x[324] 1
x[325] 0
x[326] 1
x[327] 0
x[328] 1
x[329] 0
x[330] 1
x[331] 0
x[332] 1
x[333] 1
x[334] 1
x[335] 0
x[336] 1
x[337] 0
x[338] 0
x[339] 1
x[340] 0
x[341] 1
x[342] 1
x[343] 0
x[344] 1
x[345] 0
x[346] 1
x[347] 1
x[348] 1
x[349] 1
x[350] 0
x[351] 0
x[352] 1
x[353] 0
x[354] 1
x[355] 1
x[356] 1
x[357] 1
x[358] 1
x[359] 0
x[360] 1
x[361] 0
x[362] 0
x[363] 0
x[364] 1
x[365] 1
x[366] 1
x[367] 1
x[368] 0
x[369] 0
x[370] 0
x[371] 1
x[372] 1
x[373] 0
x[374] 1
x[375] 0
x[376] 0
x[377] 1
x[378] 0
x[379] 1
x[380] 0
x[381] 1
x[382] 0
x[383] 0
x[384] 0
x[385] 0
x[386] 1
x[387] 0
x[388] 0
x[389] 0
x[390] 0
x[391] 1
x[392] 0
x[393] 0
x[394] 0
x[395] 1
x[396] 0
x[397] 1
x[398] 1
x[399] 1
x[400] 0
x[401] 1
x[402] 0
x[403] 1
x[404] 0
x[405] 1
x[406] 1
x[407] 0
x[408] 0
x[409] 1
x[410] 0
x[411] 1
x[412] 1
x[413] 1
x[414] 1
x[415] 1
x[416] 0
x[417] 0
x[418] 1
x[419] 1
x[420] 1
x[421] 1
x[422] 0
x[423] 0
x[424] 0
x[425] 1
x[426] 0
x[427] 1
x[428] 0
x[429] 0
x[430] 0
x[431] 1
x[432] 0
x[433] 0
x[434] 0
x[435] 0
x[436] 1
x[437] 1
x[438] 1
x[439] 1
x[440] 1
x[441] 0
x[442] 0
x[443] 0
x[444] 1
x[445] 1
x[446] 1
x[447] 0
x[448] 1
x[449] 0
x[450] 0
x[451] 0
x[452] 0
x[453] 1
x[454] 1
x[455] 1
x[456] 1
x[457] 1
x[458] 0
x[459] 0
x[460] 1
x[461] 1
x[462] 0
x[463] 0
x[464] 1
x[465] 0
x[466] 1
x[467] 0
x[468] 0
x[469] 0
x[470] 0
x[471] 1
x[472] 0
x[473] 0
x[474] 0
x[475] 0
x[476] 0
x[477] 0
x[478] 0
x[479] 0
x[480] 1
x[481] 0
x[482] 1
x[483] 0
x[484] 0
x[485] 0
x[486] 0
x[487] 0
x[488] 1
x[489] 0
x[490] 0
x[491] 1
x[492] 1
x[493] 0
x[494] 0
x[495] 1
x[496] 1
x[497] 0
x[498] 0
x[499] 0
x[500] 1
x[501] 1
x[502] 0
x[503] 1
x[504] 0
x[505] 1
x[506] 0
x[507] 0
x[508] 0
x[509] 0
x[510] 0
x[511] 0
x[512] 0
x[513] 1
x[514] 0
x[515] 1
x[516] 0
x[517] 1
x[518] 0
x[519] 1
x[520] 1
x[521] 0
x[522] 0
x[523] 0
x[524] 1
x[525] 0
x[526] 1
x[527] 0
x[528] 0
x[529] 1
x[530] 1
x[531] 1
x[532] 0
x[533] 0
x[534] 0
x[535] 1
x[536] 0
x[537] 1
x[538] 1
x[539] 1
x[540] 0
x[541] 0
x[542] 1
x[543] 0
x[544] 0
x[545] 0
x[546] 0
x[547] 0
x[548] 0
x[549] 1
x[550] 0
x[551] 1
x[552] 0
x[553] 1
x[554] 0
x[555] 0
x[556] 0
x[557] 0
x[558] 1
x[559] 0
x[560] 0
x[561] 0
x[562] 1
x[563] 0
x[564] 0
x[565] 1
x[566] 1
x[567] 1
x[568] 1
x[569] 0
x[570] 1
x[571] 1
x[572] 0
x[573] 0
x[574] 1
x[575] 1
x[576] 0
x[577] 1
x[578] 0
x[579] 1
x[580] 1
x[581] 1
x[582] 1
x[583] 0
x[584] 1
x[585] 1
x[586] 1
x[587] 0
x[588] 0
x[589] 1
x[590] 1
x[591] 1
x[592] 1
x[593] 0
x[594] 0
x[595] 0
x[596] 1
x[597] 1
x[598] 1
x[599] 1
x[600] 0
x[601] 0
x[602] 0
x[603] 0
x[604] 0
x[605] 1
x[606] 0
x[607] 1
x[608] 0
x[609] 0
x[610] 0
x[611] 1
x[612] 1
x[613] 0
x[614] 1
x[615] 1
x[616] 0
x[617] 1
x[618] 0
x[619] 0
x[620] 1
x[621] 1
x[622] 1
x[623] 1
x[624] 1
x[625] 1
x[626] 1
x[627] 0
x[628] 1
x[629] 0
x[630] 1
x[631] 1
x[632] 1
x[633] 1
x[634] 0
x[635] 0
x[636] 1
x[637] 0
x[638] 1
x[639] 0
x[640] 0
x[641] 1
x[642] 0
x[643] 0
x[644] 0
x[645] 0
x[646] 1
x[647] 1
x[648] 0
x[649] 0
x[650] 1
x[651] 0
x[652] 1
x[653] 1
x[654] 0
x[655] 1
x[656] 1
x[657] 0
x[658] 0
x[659] 0
x[660] 1
x[661] 1
x[662] 0
x[663] 0
x[664] 1
x[665] 1
x[666] 0
x[667] 0
x[668] 0
x[669] 0
x[670] 0
x[671] 1
x[672] 1
x[673] 1
x[674] 1
x[675] 1
x[676] 1
x[677] 0
x[678] 0
x[679] 1
x[680] 1
x[681] 1
x[682] 1
x[683] 0
x[684] 0
x[685] 1
x[686] 1
x[687] 1
x[688] 0
x[689] 0
x[690] 0
x[691] 1
x[692] 0
x[693] 1
x[694] 0
x[695] 1
x[696] 0
x[697] 1
x[698] 1
x[699] 1
x[700] 0
x[701] 0
x[702] 0
x[703] 0
x[704] 0
x[705] 0
x[706] 0
x[707] 0
x[708] 0
x[709] 1
x[710] 0
x[711] 1
x[712] 1
x[713] 0
x[714] 0
x[715] 1
x[716] 1
x[717] 1
x[718] 1
x[719] 1
x[720] 1
x[721] 0
x[722] 0
x[723] 0
x[724] 0
x[725] 0
x[726] 0
x[727] 1
x[728] 0
x[729] 1
x[730] 1
x[731] 0
x[732] 0
x[733] 1
x[734] 0
x[735] 1
x[736] 1
x[737] 0
x[738] 0
x[739] 1
x[740] 1
x[741] 1
x[742] 0
x[743] 0
x[744] 0
x[745] 0
x[746] 1
x[747] 0
x[748] 0
x[749] 0
x[750] 1
x[751] 0
x[752] 1
x[753] 0
x[754] 1
x[755] 1
x[756] 0
x[757] 0
x[758] 1
x[759] 0
x[760] 0
x[761] 0
x[762] 1
x[763] 0
x[764] 1
x[765] 1
x[766] 0
x[767] 1
x[768] 0
x[769] 1
x[770] 0
x[771] 0
x[772] 1
x[773] 1
x[774] 0
x[775] 0
x[776] 1
x[777] 0
x[778] 1
x[779] 1
x[780] 0
x[781] 1
x[782] 0
x[783] 0
x[784] 1
x[785] 1
x[786] 1
x[787] 0
x[788] 0
x[789] 1
x[790] 0
x[791] 1
x[792] 0
x[793] 0
x[794] 0
x[795] 0
x[796] 1
x[797] 1
x[798] 0
x[799] 0
x[800] 1
x[801] 0
x[802] 0
x[803] 0
x[804] 1
x[805] 0
x[806] 1
x[807] 1
x[808] 0
x[809] 1
x[810] 1
x[811] 0
x[812] 1
x[813] 1
x[814] 1
x[815] 0
x[816] 1
x[817] 1
x[818] 0
x[819] 0
x[820] 0
x[821] 1
x[822] 1
x[823] 0
x[824] 1
x[825] 1
x[826] 1
x[827] 1
x[828] 1
x[829] 0
x[830] 0
x[831] 1
x[832] 1
x[833] 0
x[834] 0
x[835] 0
x[836] 0
x[837] 0
x[838] 0
x[839] 0
x[840] 0
x[841] 1
x[842] 1
x[843] 0
x[844] 0
x[845] 1
x[846] 1
x[847] 1
x[848] 1
x[849] 1
x[850] 1
x[851] 0
x[852] 0
x[853] 0
x[854] 1
x[855] 1
x[856] 1
x[857] 0
x[858] 0
x[859] 0
x[860] 1
x[861] 0
x[862] 0
x[863] 0
x[864] 0
x[865] 1
x[866] 0
x[867] 1
x[868] 0
x[869] 1
x[870] 1
x[871] 1
x[872] 0
x[873] 0
x[874] 1
x[875] 1
x[876] 0
x[877] 0
x[878] 1
x[879] 0
x[880] 1
x[881] 0
x[882] 1
x[883] 0
x[884] 1
x[885] 0
x[886] 1
x[887] 0
x[888] 1
x[889] 0
x[890] 1
x[891] 0
x[892] 1
x[893] 0
x[894] 1
x[895] 0
x[896] 0
x[897] 1
x[898] 0
x[899] 1
x[900] 0
x[901] 0
x[902] 0
x[903] 0
x[904] 0
x[905] 0
x[906] 1
x[907] 0
x[908] 0
x[909] 1
x[910] 0
x[911] 0
x[912] 1
x[913] 1
x[914] 0
x[915] 1
x[916] 0
x[917] 0
x[918] 1
x[919] 1
x[920] 1
x[921] 0
x[922] 0
x[923] 0
x[924] 0
x[925] 0
x[926] 1
x[927] 1
x[928] 1
x[929] 0
x[930] 0
x[931] 1
x[932] 1
x[933] 0
x[934] 0
x[935] 0
x[936] 1
x[937] 0
x[938] 1
x[939] 1
x[940] 0
x[941] 1
x[942] 1
x[943] 0
x[944] 0
x[945] 1
x[946] 0
x[947] 0
x[948] 0
x[949] 0
x[950] 1
x[951] 1
x[952] 0
x[953] 1
x[954] 1
x[955] 0
x[956] 0
x[957] 1
x[958] 0
x[959] 0
x[960] 1
x[961] 1
x[962] 0
x[963] 1
x[964] 0
x[965] 1
x[966] 1
x[967] 0
x[968] 1
x[969] 0
x[970] 0
x[971] 1
x[972] 1
x[973] 1
x[974] 0
x[975] 1
x[976] 1
x[977] 1
x[978] 0
x[979] 0
x[980] 1
x[981] 0
x[982] 1
x[983] 0
x[984] 1
x[985] 0
x[986] 1
x[987] 1
x[988] 1
x[989] 0
x[990] 1
x[991] 0
x[992] 1
x[993] 0
x[994] 1
x[995] 1
x[996] 1
x[997] 0
x[998] 0
x[999] 0
